webassembly/ejemplos_dzn/folder7_json_80.dzn
TERM = { '.', 'in_1', 'local_0', 'local_1', 's(1)', 's(0)', 'in_0'};
null = '.';
s = 7;
n = 8;
ndeps = 0;
max_registers_sz = 5;
NR = 2;
registers = [|'local_0', 's(1)', |'local_1', 's(0)'|];
dependencies = [| |];
GET_ENUM = { GET1, GET2, GET3, GET4, GET5, GET6, GET7};
SET_ENUM = { SET1, SET2, SET3, SET4, SET5, SET6, SET7};
TEE_ENUM = { TEE1, TEE2, TEE3, TEE4, TEE5, TEE6, TEE7};
N = 3;
OP = { 'i32.add_0', 'i32.store16_6', 'i32.const_0' };
in_ops = [2, 2, 0 ];
out_ops = [1, 0, 1 ];
in1 = ['local_1', 's(0)', '.' ];
in2 = ['in_0', 'in_1', '.' ];
in3 = ['.', '.', '.' ];
out1 = ['s(0)', '.', 's(1)' ];
out2 = ['.', '.', '.' ];
out3 = ['.', '.', '.' ];
comm = [true, false, false ];
gas = [1, 1, 1 ];
sz = [1, 1, 1 ];
stor = [false, true, false ];
lb = [ 1, 1, 1 ];
ub = [ 7, 7, 7 ];
startstack = [ 'in_0', 'in_1', null, null, null, null, null, null ];
endstack = [ null, null, null, null, null, null, null, null ];
